p cnf 1234
-20 -384
-21 -387
-22 -390
-23 -393
-24 -396
-25 -399
-26 -402
-27 -405
-28 -408
-29 -411
-30 -414
-31 -417
-32 -420
-33 -423
-34 -426
-35 -429
-36 -432
-37 -435
-38 -438
-39 439
-40 440
-41 441
-42 442
-43 443
-44 444
-45 445
-46 446
-47 -21
-47 -22
21 22 47
-48 -23
-48 -24
23 24 48
-49 -25
-49 -26
25 26 49
-50 -27
-50 -28
27 28 50
-51 -29
-51 -30
29 30 51
-52 -31
-52 -32
31 32 52
-53 -33
-53 -34
33 34 53
-54 -35
-54 -36
35 36 54
-55 -37
-55 -38
37 38 55
-56 -39
-56 -40
39 40 56
-57 -41
-57 -42
41 42 57
-58 -43
-58 -44
43 44 58
-59 -45
-59 -46
45 46 59
-60 47
-60 48
-47 -48 60
-61 49
-61 50
-49 -50 61
-62 51
-62 52
-51 -52 62
-63 53
-63 54
-53 -54 63
-64 55
-64 56
-55 -56 64
-65 57
-65 58
-57 -58 65
-66 60
-66 61
-60 -61 66
-67 62
-67 63
-62 -63 67
-68 64
-68 65
-64 -65 68
-69 66
-69 67
-66 -67 69
-70 59
-70 68
-59 -68 70
-71 69
-71 70
-69 -70 71
-72 -20
-72 21
20 -21 72
-73 20
-73 -21
-20 21 73
-74 -72
-74 -73
72 73 74
-75 20
-75 21
-20 -21 75
-76 -20
-76 -74
20 74 76
-77 20
-77 74
-20 -74 77
-78 -76
-78 -77
76 77 78
-79 20
-79 -74
-20 74 79
-80 -75
-80 -79
75 79 80
-81 -21
-81 22
21 -22 81
-82 21
-82 -22
-21 22 82
-83 -81
-83 -82
81 82 83
-84 21
-84 22
-21 -22 84
-85 80
-85 -83
-80 83 85
-86 -80
-86 83
80 -83 86
-87 -85
-87 -86
85 86 87
-88 -80
-88 -83
80 83 88
-89 -84
-89 -88
84 88 89
-90 -22
-90 23
22 -23 90
-91 22
-91 -23
-22 23 91
-92 -90
-92 -91
90 91 92
-93 22
-93 23
-22 -23 93
-94 89
-94 -92
-89 92 94
-95 -89
-95 92
89 -92 95
-96 -94
-96 -95
94 95 96
-97 -89
-97 -92
89 92 97
-98 -93
-98 -97
93 97 98
-99 -23
-99 24
23 -24 99
-100 23
-100 -24
-23 24 100
-101 -99
-101 -100
99 100 101
-102 23
-102 24
-23 -24 102
-103 98
-103 -101
-98 101 103
-104 -98
-104 101
98 -101 104
-105 -103
-105 -104
103 104 105
-106 -98
-106 -101
98 101 106
-107 -102
-107 -106
102 106 107
-108 -24
-108 25
24 -25 108
-109 24
-109 -25
-24 25 109
-110 -108
-110 -109
108 109 110
-111 24
-111 25
-24 -25 111
-112 107
-112 -110
-107 110 112
-113 -107
-113 110
107 -110 113
-114 -112
-114 -113
112 113 114
-115 -107
-115 -110
107 110 115
-116 -111
-116 -115
111 115 116
-117 -25
-117 26
25 -26 117
-118 25
-118 -26
-25 26 118
-119 -117
-119 -118
117 118 119
-120 25
-120 26
-25 -26 120
-121 116
-121 -119
-116 119 121
-122 -116
-122 119
116 -119 122
-123 -121
-123 -122
121 122 123
-124 -116
-124 -119
116 119 124
-125 -120
-125 -124
120 124 125
-126 -26
-126 27
26 -27 126
-127 26
-127 -27
-26 27 127
-128 -126
-128 -127
126 127 128
-129 26
-129 27
-26 -27 129
-130 125
-130 -128
-125 128 130
-131 -125
-131 128
125 -128 131
-132 -130
-132 -131
130 131 132
-133 -125
-133 -128
125 128 133
-134 -129
-134 -133
129 133 134
-135 -27
-135 28
27 -28 135
-136 27
-136 -28
-27 28 136
-137 -135
-137 -136
135 136 137
-138 27
-138 28
-27 -28 138
-139 134
-139 -137
-134 137 139
-140 -134
-140 137
134 -137 140
-141 -139
-141 -140
139 140 141
-142 -134
-142 -137
134 137 142
-143 -138
-143 -142
138 142 143
-144 -28
-144 29
28 -29 144
-145 28
-145 -29
-28 29 145
-146 -144
-146 -145
144 145 146
-147 28
-147 29
-28 -29 147
-148 143
-148 -146
-143 146 148
-149 -143
-149 146
143 -146 149
-150 -148
-150 -149
148 149 150
-151 -143
-151 -146
143 146 151
-152 -147
-152 -151
147 151 152
-153 -29
-153 30
29 -30 153
-154 29
-154 -30
-29 30 154
-155 -153
-155 -154
153 154 155
-156 29
-156 30
-29 -30 156
-157 152
-157 -155
-152 155 157
-158 -152
-158 155
152 -155 158
-159 -157
-159 -158
157 158 159
-160 -152
-160 -155
152 155 160
-161 -156
-161 -160
156 160 161
-162 -30
-162 31
30 -31 162
-163 30
-163 -31
-30 31 163
-164 -162
-164 -163
162 163 164
-165 30
-165 31
-30 -31 165
-166 161
-166 -164
-161 164 166
-167 -161
-167 164
161 -164 167
-168 -166
-168 -167
166 167 168
-169 -161
-169 -164
161 164 169
-170 -165
-170 -169
165 169 170
-171 -31
-171 32
31 -32 171
-172 31
-172 -32
-31 32 172
-173 -171
-173 -172
171 172 173
-174 31
-174 32
-31 -32 174
-175 170
-175 -173
-170 173 175
-176 -170
-176 173
170 -173 176
-177 -175
-177 -176
175 176 177
-178 -170
-178 -173
170 173 178
-179 -174
-179 -178
174 178 179
-180 -32
-180 33
32 -33 180
-181 32
-181 -33
-32 33 181
-182 -180
-182 -181
180 181 182
-183 32
-183 33
-32 -33 183
-184 179
-184 -182
-179 182 184
-185 -179
-185 182
179 -182 185
-186 -184
-186 -185
184 185 186
-187 -179
-187 -182
179 182 187
-188 -183
-188 -187
183 187 188
-189 -33
-189 34
33 -34 189
-190 33
-190 -34
-33 34 190
-191 -189
-191 -190
189 190 191
-192 33
-192 34
-33 -34 192
-193 188
-193 -191
-188 191 193
-194 -188
-194 191
188 -191 194
-195 -193
-195 -194
193 194 195
-196 -188
-196 -191
188 191 196
-197 -192
-197 -196
192 196 197
-198 -34
-198 35
34 -35 198
-199 34
-199 -35
-34 35 199
-200 -198
-200 -199
198 199 200
-201 34
-201 35
-34 -35 201
-202 197
-202 -200
-197 200 202
-203 -197
-203 200
197 -200 203
-204 -202
-204 -203
202 203 204
-205 -197
-205 -200
197 200 205
-206 -201
-206 -205
201 205 206
-207 -35
-207 36
35 -36 207
-208 35
-208 -36
-35 36 208
-209 -207
-209 -208
207 208 209
-210 35
-210 36
-35 -36 210
-211 206
-211 -209
-206 209 211
-212 -206
-212 209
206 -209 212
-213 -211
-213 -212
211 212 213
-214 -206
-214 -209
206 209 214
-215 -210
-215 -214
210 214 215
-216 -36
-216 37
36 -37 216
-217 36
-217 -37
-36 37 217
-218 -216
-218 -217
216 217 218
-219 36
-219 37
-36 -37 219
-220 215
-220 -218
-215 218 220
-221 -215
-221 218
215 -218 221
-222 -220
-222 -221
220 221 222
-223 -215
-223 -218
215 218 223
-224 -219
-224 -223
219 223 224
-225 -37
-225 38
37 -38 225
-226 37
-226 -38
-37 38 226
-227 -225
-227 -226
225 226 227
-228 37
-228 38
-37 -38 228
-229 224
-229 -227
-224 227 229
-230 -224
-230 227
224 -227 230
-231 -229
-231 -230
229 230 231
-232 -224
-232 -227
224 227 232
-233 -228
-233 -232
228 232 233
-234 -38
-234 39
38 -39 234
-235 38
-235 -39
-38 39 235
-236 -234
-236 -235
234 235 236
-237 38
-237 39
-38 -39 237
-238 233
-238 -236
-233 236 238
-239 -233
-239 236
233 -236 239
-240 -238
-240 -239
238 239 240
-241 -233
-241 -236
233 236 241
-242 -237
-242 -241
237 241 242
-243 -39
-243 40
39 -40 243
-244 39
-244 -40
-39 40 244
-245 -243
-245 -244
243 244 245
-246 39
-246 40
-39 -40 246
-247 242
-247 -245
-242 245 247
-248 -242
-248 245
242 -245 248
-249 -247
-249 -248
247 248 249
-250 -242
-250 -245
242 245 250
-251 -246
-251 -250
246 250 251
-252 -40
-252 41
40 -41 252
-253 40
-253 -41
-40 41 253
-254 -252
-254 -253
252 253 254
-255 40
-255 41
-40 -41 255
-256 251
-256 -254
-251 254 256
-257 -251
-257 254
251 -254 257
-258 -256
-258 -257
256 257 258
-259 -251
-259 -254
251 254 259
-260 -255
-260 -259
255 259 260
-261 -41
-261 42
41 -42 261
-262 41
-262 -42
-41 42 262
-263 -261
-263 -262
261 262 263
-264 41
-264 42
-41 -42 264
-265 260
-265 -263
-260 263 265
-266 -260
-266 263
260 -263 266
-267 -265
-267 -266
265 266 267
-268 -260
-268 -263
260 263 268
-269 -264
-269 -268
264 268 269
-270 -42
-270 43
42 -43 270
-271 42
-271 -43
-42 43 271
-272 -270
-272 -271
270 271 272
-273 42
-273 43
-42 -43 273
-274 269
-274 -272
-269 272 274
-275 -269
-275 272
269 -272 275
-276 -274
-276 -275
274 275 276
-277 -269
-277 -272
269 272 277
-278 -273
-278 -277
273 277 278
-279 -43
-279 44
43 -44 279
-280 43
-280 -44
-43 44 280
-281 -279
-281 -280
279 280 281
-282 43
-282 44
-43 -44 282
-283 278
-283 -281
-278 281 283
-284 -278
-284 281
278 -281 284
-285 -283
-285 -284
283 284 285
-286 -278
-286 -281
278 281 286
-287 -282
-287 -286
282 286 287
-288 -44
-288 45
44 -45 288
-289 44
-289 -45
-44 45 289
-290 -288
-290 -289
288 289 290
-291 44
-291 45
-44 -45 291
-292 287
-292 -290
-287 290 292
-293 -287
-293 290
287 -290 293
-294 -292
-294 -293
292 293 294
-295 -287
-295 -290
287 290 295
-296 -291
-296 -295
291 295 296
-297 -45
-297 46
45 -46 297
-298 45
-298 -46
-45 46 298
-299 -297
-299 -298
297 298 299
-300 45
-300 46
-45 -46 300
-301 296
-301 -299
-296 299 301
-302 -296
-302 299
296 -299 302
-303 -301
-303 -302
301 302 303
-304 -296
-304 -299
296 299 304
-305 -300
-305 -304
300 304 305
-306 20
-306 -78
-20 78 306
-307 -20
-307 22
20 -22 307
-308 -306
-308 -307
306 307 308
-309 20
-309 -87
-20 87 309
-310 -20
-310 23
20 -23 310
-311 -309
-311 -310
309 310 311
-312 20
-312 -96
-20 96 312
-313 -20
-313 24
20 -24 313
-314 -312
-314 -313
312 313 314
-315 20
-315 -105
-20 105 315
-316 -20
-316 25
20 -25 316
-317 -315
-317 -316
315 316 317
-318 20
-318 -114
-20 114 318
-319 -20
-319 26
20 -26 319
-320 -318
-320 -319
318 319 320
-321 20
-321 -123
-20 123 321
-322 -20
-322 27
20 -27 322
-323 -321
-323 -322
321 322 323
-324 20
-324 -132
-20 132 324
-325 -20
-325 28
20 -28 325
-326 -324
-326 -325
324 325 326
-327 20
-327 -141
-20 141 327
-328 -20
-328 29
20 -29 328
-329 -327
-329 -328
327 328 329
-330 20
-330 -150
-20 150 330
-331 -20
-331 30
20 -30 331
-332 -330
-332 -331
330 331 332
-333 20
-333 -159
-20 159 333
-334 -20
-334 31
20 -31 334
-335 -333
-335 -334
333 334 335
-336 20
-336 -168
-20 168 336
-337 -20
-337 32
20 -32 337
-338 -336
-338 -337
336 337 338
-339 20
-339 -177
-20 177 339
-340 -20
-340 33
20 -33 340
-341 -339
-341 -340
339 340 341
-342 20
-342 -186
-20 186 342
-343 -20
-343 34
20 -34 343
-344 -342
-344 -343
342 343 344
-345 20
-345 -195
-20 195 345
-346 -20
-346 35
20 -35 346
-347 -345
-347 -346
345 346 347
-348 20
-348 -204
-20 204 348
-349 -20
-349 36
20 -36 349
-350 -348
-350 -349
348 349 350
-351 20
-351 -213
-20 213 351
-352 -20
-352 37
20 -37 352
-353 -351
-353 -352
351 352 353
-354 20
-354 -222
-20 222 354
-355 -20
-355 38
20 -38 355
-356 -354
-356 -355
354 355 356
-357 20
-357 -231
-20 231 357
-358 -20
-358 39
20 -39 358
-359 -357
-359 -358
357 358 359
-360 20
-360 -240
-20 240 360
-361 -20
-361 40
20 -40 361
-362 -360
-362 -361
360 361 362
-363 20
-363 -249
-20 249 363
-364 -20
-364 41
20 -41 364
-365 -363
-365 -364
363 364 365
-366 20
-366 -258
-20 258 366
-367 -20
-367 42
20 -42 367
-368 -366
-368 -367
366 367 368
-369 20
-369 -267
-20 267 369
-370 -20
-370 43
20 -43 370
-371 -369
-371 -370
369 370 371
-372 20
-372 -276
-20 276 372
-373 -20
-373 44
20 -44 373
-374 -372
-374 -373
372 373 374
-375 20
-375 -285
-20 285 375
-376 -20
-376 45
20 -45 376
-377 -375
-377 -376
375 376 377
-378 20
-378 -294
-20 294 378
-379 -20
-379 46
20 -46 379
-380 -378
-380 -379
378 379 380
-381 20
-381 -303
-20 303 381
-382 1
-382 71
-1 -71 382
-383 -71
-383 72
71 -72 383
-384 -382
-384 -383
382 383 384
-385 2
-385 71
-2 -71 385
-386 -71
-386 -308
71 308 386
-387 -385
-387 -386
385 386 387
-388 3
-388 71
-3 -71 388
-389 -71
-389 -311
71 311 389
-390 -388
-390 -389
388 389 390
-391 4
-391 71
-4 -71 391
-392 -71
-392 -314
71 314 392
-393 -391
-393 -392
391 392 393
-394 5
-394 71
-5 -71 394
-395 -71
-395 -317
71 317 395
-396 -394
-396 -395
394 395 396
-397 6
-397 71
-6 -71 397
-398 -71
-398 -320
71 320 398
-399 -397
-399 -398
397 398 399
-400 7
-400 71
-7 -71 400
-401 -71
-401 -323
71 323 401
-402 -400
-402 -401
400 401 402
-403 8
-403 71
-8 -71 403
-404 -71
-404 -326
71 326 404
-405 -403
-405 -404
403 404 405
-406 9
-406 71
-9 -71 406
-407 -71
-407 -329
71 329 407
-408 -406
-408 -407
406 407 408
-409 10
-409 71
-10 -71 409
-410 -71
-410 -332
71 332 410
-411 -409
-411 -410
409 410 411
-412 11
-412 71
-11 -71 412
-413 -71
-413 -335
71 335 413
-414 -412
-414 -413
412 413 414
-415 12
-415 71
-12 -71 415
-416 -71
-416 -338
71 338 416
-417 -415
-417 -416
415 416 417
-418 13
-418 71
-13 -71 418
-419 -71
-419 -341
71 341 419
-420 -418
-420 -419
418 419 420
-421 14
-421 71
-14 -71 421
-422 -71
-422 -344
71 344 422
-423 -421
-423 -422
421 422 423
-424 15
-424 71
-15 -71 424
-425 -71
-425 -347
71 347 425
-426 -424
-426 -425
424 425 426
-427 16
-427 71
-16 -71 427
-428 -71
-428 -350
71 350 428
-429 -427
-429 -428
427 428 429
-430 17
-430 71
-17 -71 430
-431 -71
-431 -353
71 353 431
-432 -430
-432 -431
430 431 432
-433 18
-433 71
-18 -71 433
-434 -71
-434 -356
71 356 434
-435 -433
-435 -434
433 434 435
-436 19
-436 71
-19 -71 436
-437 -71
-437 -359
71 359 437
-438 -436
-438 -437
436 437 438
-439 -71
-439 -362
71 362 439
-440 -71
-440 -365
71 365 440
-441 -71
-441 -368
71 368 441
-442 -71
-442 -371
71 371 442
-443 -71
-443 -374
71 374 443
-444 -71
-444 -377
71 377 444
-445 -71
-445 -380
71 380 445
-446 -71
-446 381
71 -381 446
-447 -46
-447 305
46 -305 447
-448 20
-448 -447
-20 447 448
448
